p tw 40 98
0 1
0 17
0 12
1 10
1 28
1 30
1 31
2 3
2 36
2 38
2 35
3 10
3 17
3 13
3 28
3 20
3 12
4 5
4 9
4 30
4 26
4 35
4 10
5 16
5 12
5 19
5 33
5 14
5 34
5 21
6 7
6 11
6 26
6 24
6 8
7 29
7 14
7 25
7 33
8 9
8 13
8 20
8 24
8 27
8 23
8 37
9 34
9 24
10 31
10 32
10 20
10 37
10 13
11 12
11 15
11 17
11 28
12 30
12 25
12 15
13 14
13 25
13 18
13 36
13 35
13 22
14 29
14 18
15 23
15 17
15 16
15 20
15 27
16 25
17 35
17 30
17 19
17 36
18 19
18 27
18 22
18 28
20 32
21 22
21 24
21 35
22 24
22 35
22 37
23 30
24 34
25 34
26 27
26 32
27 28
30 38
30 39
33 34
